* #variable= 510 #constraint= 1053 #equal= 77 intsize= 27
****************************************
* begin normalizer comments
* category= DEC-LIN
* end normalizer comments
****************************************
+1 x62 = 1 ;
+1 x63 = 0 ;
+1 x64 = 0 ;
+1 x65 = 0 ;
+1 x66 = 0 ;
+1 x67 = 0 ;
+1 x68 = 0 ;
+1 x69 = 0 ;
+1 x70 = 0 ;
+1 x71 = 0 ;
+1 x72 = 0 ;
+1 x73 = 0 ;
+2 x87 +1 x74 -1 x50 -1 x62 = 0 ;
+2 x88 +1 x75 -1 x51 -1 x87 -1 x63 = 0 ;
+2 x89 +1 x76 -1 x52 -1 x88 -1 x64 = 0 ;
+2 x90 +1 x77 -1 x53 -1 x89 -1 x65 = 0 ;
+2 x91 +1 x78 -1 x54 -1 x90 -1 x66 = 0 ;
+2 x92 +1 x79 -1 x55 -1 x91 -1 x67 = 0 ;
+2 x93 +1 x80 -1 x56 -1 x92 -1 x68 = 0 ;
+2 x94 +1 x81 -1 x57 -1 x93 -1 x69 = 0 ;
+2 x95 +1 x82 -1 x58 -1 x94 -1 x70 = 0 ;
+2 x96 +1 x83 -1 x59 -1 x95 -1 x71 = 0 ;
+2 x97 +1 x84 -1 x60 -1 x96 -1 x72 = 0 ;
+2 x98 +1 x85 -1 x61 -1 x97 -1 x73 = 0 ;
+1 x98 -1 x86 = 0 ;
+2 x99 +1 x486 -1 x462 -1 x1 = 0 ;
+2 x100 +1 x487 -1 x463 -1 x99 -1 x2 = 0 ;
+2 x101 +1 x488 -1 x464 -1 x100 -1 x3 = 0 ;
+2 x102 +1 x489 -1 x465 -1 x101 -1 x4 = 0 ;
+2 x103 +1 x490 -1 x466 -1 x102 -1 x5 = 0 ;
+2 x104 +1 x491 -1 x467 -1 x103 -1 x6 = 0 ;
+2 x105 +1 x492 -1 x468 -1 x104 -1 x7 = 0 ;
+2 x106 +1 x493 -1 x469 -1 x105 -1 x8 = 0 ;
+2 x107 +1 x494 -1 x470 -1 x106 -1 x9 = 0 ;
+2 x108 +1 x495 -1 x471 -1 x107 -1 x10 = 0 ;
+2 x109 +1 x496 -1 x472 -1 x108 -1 x11 = 0 ;
+2 x110 +1 x497 -1 x473 -1 x109 -1 x12 = 0 ;
+2 x111 +1 x498 -1 x474 -1 x110 -1 x13 = 0 ;
+2 x112 +1 x499 -1 x475 -1 x111 -1 x14 = 0 ;
+2 x113 +1 x500 -1 x476 -1 x112 -1 x15 = 0 ;
+2 x114 +1 x501 -1 x477 -1 x113 -1 x16 = 0 ;
+2 x115 +1 x502 -1 x478 -1 x114 -1 x17 = 0 ;
+2 x116 +1 x503 -1 x479 -1 x115 -1 x18 = 0 ;
+2 x117 +1 x504 -1 x480 -1 x116 -1 x19 = 0 ;
+2 x118 +1 x505 -1 x481 -1 x117 -1 x20 = 0 ;
+2 x119 +1 x506 -1 x482 -1 x118 -1 x21 = 0 ;
+2 x120 +1 x507 -1 x483 -1 x119 -1 x22 = 0 ;
+2 x121 +1 x508 -1 x484 -1 x120 -1 x23 = 0 ;
+2 x122 +1 x509 -1 x485 -1 x121 -1 x24 = 0 ;
+1 x122 -1 x510 = 0 ;
+1 x13 = 0 ;
+1 x14 = 0 ;
+1 x15 = 0 ;
+1 x16 = 0 ;
+1 x17 = 0 ;
+1 x18 = 0 ;
+1 x19 = 0 ;
+1 x20 = 0 ;
+1 x21 = 0 ;
+1 x22 = 0 ;
+1 x23 = 0 ;
+1 x24 = 0 ;
+1 x49 = 0 ;
+1 x37 -1 x1 >= 0 ;
+1 x37 -1 x25 >= 0 ;
-1 x37 +1 x1 +1 x25 >= 0 ;
+1 x25 = 0 ;
+1 x38 -1 x2 >= 0 ;
+1 x38 -1 x26 >= 0 ;
-1 x38 +1 x2 +1 x26 >= 0 ;
+1 x26 = 1 ;
+1 x39 -1 x3 >= 0 ;
+1 x39 -1 x27 >= 0 ;
-1 x39 +1 x3 +1 x27 >= 0 ;
+1 x27 = 0 ;
+1 x40 -1 x4 >= 0 ;
+1 x40 -1 x28 >= 0 ;
-1 x40 +1 x4 +1 x28 >= 0 ;
+1 x28 = 1 ;
+1 x41 -1 x5 >= 0 ;
+1 x41 -1 x29 >= 0 ;
-1 x41 +1 x5 +1 x29 >= 0 ;
+1 x29 = 0 ;
+1 x42 -1 x6 >= 0 ;
+1 x42 -1 x30 >= 0 ;
-1 x42 +1 x6 +1 x30 >= 0 ;
+1 x30 = 1 ;
+1 x43 -1 x7 >= 0 ;
+1 x43 -1 x31 >= 0 ;
-1 x43 +1 x7 +1 x31 >= 0 ;
+1 x31 = 0 ;
+1 x44 -1 x8 >= 0 ;
+1 x44 -1 x32 >= 0 ;
-1 x44 +1 x8 +1 x32 >= 0 ;
+1 x32 = 1 ;
+1 x45 -1 x9 >= 0 ;
+1 x45 -1 x33 >= 0 ;
-1 x45 +1 x9 +1 x33 >= 0 ;
+1 x33 = 0 ;
+1 x46 -1 x10 >= 0 ;
+1 x46 -1 x34 >= 0 ;
-1 x46 +1 x10 +1 x34 >= 0 ;
+1 x34 = 1 ;
+1 x47 -1 x11 >= 0 ;
+1 x47 -1 x35 >= 0 ;
-1 x47 +1 x11 +1 x35 >= 0 ;
+1 x35 = 0 ;
+1 x48 -1 x12 >= 0 ;
+1 x48 -1 x36 >= 0 ;
-1 x48 +1 x12 +1 x36 >= 0 ;
+1 x36 = 1 ;
-1 x123 +1 x37 >= 0 ;
-1 x123 +1 x74 >= 0 ;
+1 x123 -1 x37 -1 x74 >= -1 ;
+1 x123 +2 x136 +4 x149 +8 x162 +16 x175 +32 x188 +64 x201 +128 x214 +256 x227 +512 x240 +1024 x253 +2048 x266 +4096 x279 +2 x124 +4 x137 +8 x150 +16 x163 +32 x176 +64 x189 +128 x202 +256 x215 +512 x228 +1024 x241 +2048 x254 +4096 x267 +8192 x280 +4 x125 +8 x138 +16 x151 +32 x164 +64 x177 +128 x190 +256 x203 +512 x216 +1024 x229 +2048 x242 +4096 x255 +8192 x268 +16384 x281 +8 x126 +16 x139 +32 x152 +64 x165 +128 x178 +256 x191 +512 x204 +1024 x217 +2048 x230 +4096 x243 +8192 x256 +16384 x269 +32768 x282 +16 x127 +32 x140 +64 x153 +128 x166 +256 x179 +512 x192 +1024 x205 +2048 x218 +4096 x231 +8192 x244 +16384 x257 +32768 x270 +65536 x283 +32 x128 +64 x141 +128 x154 +256 x167 +512 x180 +1024 x193 +2048 x206 +4096 x219 +8192 x232 +16384 x245 +32768 x258 +65536 x271 +131072 x284 +64 x129 +128 x142 +256 x155 +512 x168 +1024 x181 +2048 x194 +4096 x207 +8192 x220 +16384 x233 +32768 x246 +65536 x259 +131072 x272 +262144 x285 +128 x130 +256 x143 +512 x156 +1024 x169 +2048 x182 +4096 x195 +8192 x208 +16384 x221 +32768 x234 +65536 x247 +131072 x260 +262144 x273 +524288 x286 +256 x131 +512 x144 +1024 x157 +2048 x170 +4096 x183 +8192 x196 +16384 x209 +32768 x222 +65536 x235 +131072 x248 +262144 x261 +524288 x274 +1048576 x287 +512 x132 +1024 x145 +2048 x158 +4096 x171 +8192 x184 +16384 x197 +32768 x210 +65536 x223 +131072 x236 +262144 x249 +524288 x262 +1048576 x275 +2097152 x288 +1024 x133 +2048 x146 +4096 x159 +8192 x172 +16384 x185 +32768 x198 +65536 x211 +131072 x224 +262144 x237 +524288 x250 +1048576 x263 +2097152 x276 +4194304 x289 +2048 x134 +4096 x147 +8192 x160 +16384 x173 +32768 x186 +65536 x199 +131072 x212 +262144 x225 +524288 x238 +1048576 x251 +2097152 x264 +4194304 x277 +8388608 x290 +4096 x135 +8192 x148 +16384 x161 +32768 x174 +65536 x187 +131072 x200 +262144 x213 +524288 x226 +1048576 x239 +2097152 x252 +4194304 x265 +8388608 x278 +16777216 x291 -1 x292 -2 x293 -4 x294 -8 x295 -16 x296 -32 x297 -64 x298 -128 x299 -256 x300 -512 x301 -1024 x302 -2048 x303 -4096 x304 -8192 x305 -16384 x306 -32768 x307 -65536 x308 -131072 x309 -262144 x310 -524288 x311 -1048576 x312 -2097152 x313 -4194304 x314 -8388608 x315 -16777216 x316 -33554432 x317 = 0 ;
-1 x318 +1 x25 >= 0 ;
-1 x318 +1 x50 >= 0 ;
+1 x318 -1 x25 -1 x50 >= -1 ;
+1 x318 +2 x330 +4 x342 +8 x354 +16 x366 +32 x378 +64 x390 +128 x402 +256 x414 +512 x426 +1024 x438 +2048 x450 +2 x319 +4 x331 +8 x343 +16 x355 +32 x367 +64 x379 +128 x391 +256 x403 +512 x415 +1024 x427 +2048 x439 +4096 x451 +4 x320 +8 x332 +16 x344 +32 x356 +64 x368 +128 x380 +256 x392 +512 x404 +1024 x416 +2048 x428 +4096 x440 +8192 x452 +8 x321 +16 x333 +32 x345 +64 x357 +128 x369 +256 x381 +512 x393 +1024 x405 +2048 x417 +4096 x429 +8192 x441 +16384 x453 +16 x322 +32 x334 +64 x346 +128 x358 +256 x370 +512 x382 +1024 x394 +2048 x406 +4096 x418 +8192 x430 +16384 x442 +32768 x454 +32 x323 +64 x335 +128 x347 +256 x359 +512 x371 +1024 x383 +2048 x395 +4096 x407 +8192 x419 +16384 x431 +32768 x443 +65536 x455 +64 x324 +128 x336 +256 x348 +512 x360 +1024 x372 +2048 x384 +4096 x396 +8192 x408 +16384 x420 +32768 x432 +65536 x444 +131072 x456 +128 x325 +256 x337 +512 x349 +1024 x361 +2048 x373 +4096 x385 +8192 x397 +16384 x409 +32768 x421 +65536 x433 +131072 x445 +262144 x457 +256 x326 +512 x338 +1024 x350 +2048 x362 +4096 x374 +8192 x386 +16384 x398 +32768 x410 +65536 x422 +131072 x434 +262144 x446 +524288 x458 +512 x327 +1024 x339 +2048 x351 +4096 x363 +8192 x375 +16384 x387 +32768 x399 +65536 x411 +131072 x423 +262144 x435 +524288 x447 +1048576 x459 +1024 x328 +2048 x340 +4096 x352 +8192 x364 +16384 x376 +32768 x388 +65536 x400 +131072 x412 +262144 x424 +524288 x436 +1048576 x448 +2097152 x460 +2048 x329 +4096 x341 +8192 x353 +16384 x365 +32768 x377 +65536 x389 +131072 x401 +262144 x413 +524288 x425 +1048576 x437 +2097152 x449 +4194304 x461 -1 x462 -2 x463 -4 x464 -8 x465 -16 x466 -32 x467 -64 x468 -128 x469 -256 x470 -512 x471 -1024 x472 -2048 x473 -4096 x474 -8192 x475 -16384 x476 -32768 x477 -65536 x478 -131072 x479 -262144 x480 -524288 x481 -1048576 x482 -2097152 x483 -4194304 x484 -8388608 x485 = 0 ;
+1 x486 -1 x292 +2 x487 -2 x293 +4 x488 -4 x294 +8 x489 -8 x295 +16 x490 -16 x296 +32 x491 -32 x297 +64 x492 -64 x298 +128 x493 -128 x299 +256 x494 -256 x300 +512 x495 -512 x301 +1024 x496 -1024 x302 +2048 x497 -2048 x303 +4096 x498 -4096 x304 +8192 x499 -8192 x305 +16384 x500 -16384 x306 +32768 x501 -32768 x307 +65536 x502 -65536 x308 +131072 x503 -131072 x309 +262144 x504 -262144 x310 +524288 x505 -524288 x311 +1048576 x506 -1048576 x312 +2097152 x507 -2097152 x313 +4194304 x508 -4194304 x314 +8388608 x509 -8388608 x315 +16777216 x510 -16777216 x316 >= 1 ;
-1 x136 +1 x38 >= 0 ;
-1 x136 +1 x74 >= 0 ;
+1 x136 -1 x38 -1 x74 >= -1 ;
-1 x124 +1 x37 >= 0 ;
-1 x124 +1 x75 >= 0 ;
+1 x124 -1 x37 -1 x75 >= -1 ;
-1 x330 +1 x26 >= 0 ;
-1 x330 +1 x50 >= 0 ;
+1 x330 -1 x26 -1 x50 >= -1 ;
-1 x319 +1 x25 >= 0 ;
-1 x319 +1 x51 >= 0 ;
+1 x319 -1 x25 -1 x51 >= -1 ;
-1 x149 +1 x39 >= 0 ;
-1 x149 +1 x74 >= 0 ;
+1 x149 -1 x39 -1 x74 >= -1 ;
-1 x137 +1 x38 >= 0 ;
-1 x137 +1 x75 >= 0 ;
+1 x137 -1 x38 -1 x75 >= -1 ;
-1 x125 +1 x37 >= 0 ;
-1 x125 +1 x76 >= 0 ;
+1 x125 -1 x37 -1 x76 >= -1 ;
-1 x342 +1 x27 >= 0 ;
-1 x342 +1 x50 >= 0 ;
+1 x342 -1 x27 -1 x50 >= -1 ;
-1 x331 +1 x26 >= 0 ;
-1 x331 +1 x51 >= 0 ;
+1 x331 -1 x26 -1 x51 >= -1 ;
-1 x320 +1 x25 >= 0 ;
-1 x320 +1 x52 >= 0 ;
+1 x320 -1 x25 -1 x52 >= -1 ;
-1 x162 +1 x40 >= 0 ;
-1 x162 +1 x74 >= 0 ;
+1 x162 -1 x40 -1 x74 >= -1 ;
-1 x150 +1 x39 >= 0 ;
-1 x150 +1 x75 >= 0 ;
+1 x150 -1 x39 -1 x75 >= -1 ;
-1 x138 +1 x38 >= 0 ;
-1 x138 +1 x76 >= 0 ;
+1 x138 -1 x38 -1 x76 >= -1 ;
-1 x126 +1 x37 >= 0 ;
-1 x126 +1 x77 >= 0 ;
+1 x126 -1 x37 -1 x77 >= -1 ;
-1 x354 +1 x28 >= 0 ;
-1 x354 +1 x50 >= 0 ;
+1 x354 -1 x28 -1 x50 >= -1 ;
-1 x343 +1 x27 >= 0 ;
-1 x343 +1 x51 >= 0 ;
+1 x343 -1 x27 -1 x51 >= -1 ;
-1 x332 +1 x26 >= 0 ;
-1 x332 +1 x52 >= 0 ;
+1 x332 -1 x26 -1 x52 >= -1 ;
-1 x321 +1 x25 >= 0 ;
-1 x321 +1 x53 >= 0 ;
+1 x321 -1 x25 -1 x53 >= -1 ;
-1 x175 +1 x41 >= 0 ;
-1 x175 +1 x74 >= 0 ;
+1 x175 -1 x41 -1 x74 >= -1 ;
-1 x163 +1 x40 >= 0 ;
-1 x163 +1 x75 >= 0 ;
+1 x163 -1 x40 -1 x75 >= -1 ;
-1 x151 +1 x39 >= 0 ;
-1 x151 +1 x76 >= 0 ;
+1 x151 -1 x39 -1 x76 >= -1 ;
-1 x139 +1 x38 >= 0 ;
-1 x139 +1 x77 >= 0 ;
+1 x139 -1 x38 -1 x77 >= -1 ;
-1 x127 +1 x37 >= 0 ;
-1 x127 +1 x78 >= 0 ;
+1 x127 -1 x37 -1 x78 >= -1 ;
-1 x366 +1 x29 >= 0 ;
-1 x366 +1 x50 >= 0 ;
+1 x366 -1 x29 -1 x50 >= -1 ;
-1 x355 +1 x28 >= 0 ;
-1 x355 +1 x51 >= 0 ;
+1 x355 -1 x28 -1 x51 >= -1 ;
-1 x344 +1 x27 >= 0 ;
-1 x344 +1 x52 >= 0 ;
+1 x344 -1 x27 -1 x52 >= -1 ;
-1 x333 +1 x26 >= 0 ;
-1 x333 +1 x53 >= 0 ;
+1 x333 -1 x26 -1 x53 >= -1 ;
-1 x322 +1 x25 >= 0 ;
-1 x322 +1 x54 >= 0 ;
+1 x322 -1 x25 -1 x54 >= -1 ;
-1 x188 +1 x42 >= 0 ;
-1 x188 +1 x74 >= 0 ;
+1 x188 -1 x42 -1 x74 >= -1 ;
-1 x176 +1 x41 >= 0 ;
-1 x176 +1 x75 >= 0 ;
+1 x176 -1 x41 -1 x75 >= -1 ;
-1 x164 +1 x40 >= 0 ;
-1 x164 +1 x76 >= 0 ;
+1 x164 -1 x40 -1 x76 >= -1 ;
-1 x152 +1 x39 >= 0 ;
-1 x152 +1 x77 >= 0 ;
+1 x152 -1 x39 -1 x77 >= -1 ;
-1 x140 +1 x38 >= 0 ;
-1 x140 +1 x78 >= 0 ;
+1 x140 -1 x38 -1 x78 >= -1 ;
-1 x128 +1 x37 >= 0 ;
-1 x128 +1 x79 >= 0 ;
+1 x128 -1 x37 -1 x79 >= -1 ;
-1 x378 +1 x30 >= 0 ;
-1 x378 +1 x50 >= 0 ;
+1 x378 -1 x30 -1 x50 >= -1 ;
-1 x367 +1 x29 >= 0 ;
-1 x367 +1 x51 >= 0 ;
+1 x367 -1 x29 -1 x51 >= -1 ;
-1 x356 +1 x28 >= 0 ;
-1 x356 +1 x52 >= 0 ;
+1 x356 -1 x28 -1 x52 >= -1 ;
-1 x345 +1 x27 >= 0 ;
-1 x345 +1 x53 >= 0 ;
+1 x345 -1 x27 -1 x53 >= -1 ;
-1 x334 +1 x26 >= 0 ;
-1 x334 +1 x54 >= 0 ;
+1 x334 -1 x26 -1 x54 >= -1 ;
-1 x323 +1 x25 >= 0 ;
-1 x323 +1 x55 >= 0 ;
+1 x323 -1 x25 -1 x55 >= -1 ;
-1 x201 +1 x43 >= 0 ;
-1 x201 +1 x74 >= 0 ;
+1 x201 -1 x43 -1 x74 >= -1 ;
-1 x189 +1 x42 >= 0 ;
-1 x189 +1 x75 >= 0 ;
+1 x189 -1 x42 -1 x75 >= -1 ;
-1 x177 +1 x41 >= 0 ;
-1 x177 +1 x76 >= 0 ;
+1 x177 -1 x41 -1 x76 >= -1 ;
-1 x165 +1 x40 >= 0 ;
-1 x165 +1 x77 >= 0 ;
+1 x165 -1 x40 -1 x77 >= -1 ;
-1 x153 +1 x39 >= 0 ;
-1 x153 +1 x78 >= 0 ;
+1 x153 -1 x39 -1 x78 >= -1 ;
-1 x141 +1 x38 >= 0 ;
-1 x141 +1 x79 >= 0 ;
+1 x141 -1 x38 -1 x79 >= -1 ;
-1 x129 +1 x37 >= 0 ;
-1 x129 +1 x80 >= 0 ;
+1 x129 -1 x37 -1 x80 >= -1 ;
-1 x390 +1 x31 >= 0 ;
-1 x390 +1 x50 >= 0 ;
+1 x390 -1 x31 -1 x50 >= -1 ;
-1 x379 +1 x30 >= 0 ;
-1 x379 +1 x51 >= 0 ;
+1 x379 -1 x30 -1 x51 >= -1 ;
-1 x368 +1 x29 >= 0 ;
-1 x368 +1 x52 >= 0 ;
+1 x368 -1 x29 -1 x52 >= -1 ;
-1 x357 +1 x28 >= 0 ;
-1 x357 +1 x53 >= 0 ;
+1 x357 -1 x28 -1 x53 >= -1 ;
-1 x346 +1 x27 >= 0 ;
-1 x346 +1 x54 >= 0 ;
+1 x346 -1 x27 -1 x54 >= -1 ;
-1 x335 +1 x26 >= 0 ;
-1 x335 +1 x55 >= 0 ;
+1 x335 -1 x26 -1 x55 >= -1 ;
-1 x324 +1 x25 >= 0 ;
-1 x324 +1 x56 >= 0 ;
+1 x324 -1 x25 -1 x56 >= -1 ;
-1 x214 +1 x44 >= 0 ;
-1 x214 +1 x74 >= 0 ;
+1 x214 -1 x44 -1 x74 >= -1 ;
-1 x202 +1 x43 >= 0 ;
-1 x202 +1 x75 >= 0 ;
+1 x202 -1 x43 -1 x75 >= -1 ;
-1 x190 +1 x42 >= 0 ;
-1 x190 +1 x76 >= 0 ;
+1 x190 -1 x42 -1 x76 >= -1 ;
-1 x178 +1 x41 >= 0 ;
-1 x178 +1 x77 >= 0 ;
+1 x178 -1 x41 -1 x77 >= -1 ;
-1 x166 +1 x40 >= 0 ;
-1 x166 +1 x78 >= 0 ;
+1 x166 -1 x40 -1 x78 >= -1 ;
-1 x154 +1 x39 >= 0 ;
-1 x154 +1 x79 >= 0 ;
+1 x154 -1 x39 -1 x79 >= -1 ;
-1 x142 +1 x38 >= 0 ;
-1 x142 +1 x80 >= 0 ;
+1 x142 -1 x38 -1 x80 >= -1 ;
-1 x130 +1 x37 >= 0 ;
-1 x130 +1 x81 >= 0 ;
+1 x130 -1 x37 -1 x81 >= -1 ;
-1 x402 +1 x32 >= 0 ;
-1 x402 +1 x50 >= 0 ;
+1 x402 -1 x32 -1 x50 >= -1 ;
-1 x391 +1 x31 >= 0 ;
-1 x391 +1 x51 >= 0 ;
+1 x391 -1 x31 -1 x51 >= -1 ;
-1 x380 +1 x30 >= 0 ;
-1 x380 +1 x52 >= 0 ;
+1 x380 -1 x30 -1 x52 >= -1 ;
-1 x369 +1 x29 >= 0 ;
-1 x369 +1 x53 >= 0 ;
+1 x369 -1 x29 -1 x53 >= -1 ;
-1 x358 +1 x28 >= 0 ;
-1 x358 +1 x54 >= 0 ;
+1 x358 -1 x28 -1 x54 >= -1 ;
-1 x347 +1 x27 >= 0 ;
-1 x347 +1 x55 >= 0 ;
+1 x347 -1 x27 -1 x55 >= -1 ;
-1 x336 +1 x26 >= 0 ;
-1 x336 +1 x56 >= 0 ;
+1 x336 -1 x26 -1 x56 >= -1 ;
-1 x325 +1 x25 >= 0 ;
-1 x325 +1 x57 >= 0 ;
+1 x325 -1 x25 -1 x57 >= -1 ;
-1 x227 +1 x45 >= 0 ;
-1 x227 +1 x74 >= 0 ;
+1 x227 -1 x45 -1 x74 >= -1 ;
-1 x215 +1 x44 >= 0 ;
-1 x215 +1 x75 >= 0 ;
+1 x215 -1 x44 -1 x75 >= -1 ;
-1 x203 +1 x43 >= 0 ;
-1 x203 +1 x76 >= 0 ;
+1 x203 -1 x43 -1 x76 >= -1 ;
-1 x191 +1 x42 >= 0 ;
-1 x191 +1 x77 >= 0 ;
+1 x191 -1 x42 -1 x77 >= -1 ;
-1 x179 +1 x41 >= 0 ;
-1 x179 +1 x78 >= 0 ;
+1 x179 -1 x41 -1 x78 >= -1 ;
-1 x167 +1 x40 >= 0 ;
-1 x167 +1 x79 >= 0 ;
+1 x167 -1 x40 -1 x79 >= -1 ;
-1 x155 +1 x39 >= 0 ;
-1 x155 +1 x80 >= 0 ;
+1 x155 -1 x39 -1 x80 >= -1 ;
-1 x143 +1 x38 >= 0 ;
-1 x143 +1 x81 >= 0 ;
+1 x143 -1 x38 -1 x81 >= -1 ;
-1 x131 +1 x37 >= 0 ;
-1 x131 +1 x82 >= 0 ;
+1 x131 -1 x37 -1 x82 >= -1 ;
-1 x414 +1 x33 >= 0 ;
-1 x414 +1 x50 >= 0 ;
+1 x414 -1 x33 -1 x50 >= -1 ;
-1 x403 +1 x32 >= 0 ;
-1 x403 +1 x51 >= 0 ;
+1 x403 -1 x32 -1 x51 >= -1 ;
-1 x392 +1 x31 >= 0 ;
-1 x392 +1 x52 >= 0 ;
+1 x392 -1 x31 -1 x52 >= -1 ;
-1 x381 +1 x30 >= 0 ;
-1 x381 +1 x53 >= 0 ;
+1 x381 -1 x30 -1 x53 >= -1 ;
-1 x370 +1 x29 >= 0 ;
-1 x370 +1 x54 >= 0 ;
+1 x370 -1 x29 -1 x54 >= -1 ;
-1 x359 +1 x28 >= 0 ;
-1 x359 +1 x55 >= 0 ;
+1 x359 -1 x28 -1 x55 >= -1 ;
-1 x348 +1 x27 >= 0 ;
-1 x348 +1 x56 >= 0 ;
+1 x348 -1 x27 -1 x56 >= -1 ;
-1 x337 +1 x26 >= 0 ;
-1 x337 +1 x57 >= 0 ;
+1 x337 -1 x26 -1 x57 >= -1 ;
-1 x326 +1 x25 >= 0 ;
-1 x326 +1 x58 >= 0 ;
+1 x326 -1 x25 -1 x58 >= -1 ;
-1 x240 +1 x46 >= 0 ;
-1 x240 +1 x74 >= 0 ;
+1 x240 -1 x46 -1 x74 >= -1 ;
-1 x228 +1 x45 >= 0 ;
-1 x228 +1 x75 >= 0 ;
+1 x228 -1 x45 -1 x75 >= -1 ;
-1 x216 +1 x44 >= 0 ;
-1 x216 +1 x76 >= 0 ;
+1 x216 -1 x44 -1 x76 >= -1 ;
-1 x204 +1 x43 >= 0 ;
-1 x204 +1 x77 >= 0 ;
+1 x204 -1 x43 -1 x77 >= -1 ;
-1 x192 +1 x42 >= 0 ;
-1 x192 +1 x78 >= 0 ;
+1 x192 -1 x42 -1 x78 >= -1 ;
-1 x180 +1 x41 >= 0 ;
-1 x180 +1 x79 >= 0 ;
+1 x180 -1 x41 -1 x79 >= -1 ;
-1 x168 +1 x40 >= 0 ;
-1 x168 +1 x80 >= 0 ;
+1 x168 -1 x40 -1 x80 >= -1 ;
-1 x156 +1 x39 >= 0 ;
-1 x156 +1 x81 >= 0 ;
+1 x156 -1 x39 -1 x81 >= -1 ;
-1 x144 +1 x38 >= 0 ;
-1 x144 +1 x82 >= 0 ;
+1 x144 -1 x38 -1 x82 >= -1 ;
-1 x132 +1 x37 >= 0 ;
-1 x132 +1 x83 >= 0 ;
+1 x132 -1 x37 -1 x83 >= -1 ;
-1 x426 +1 x34 >= 0 ;
-1 x426 +1 x50 >= 0 ;
+1 x426 -1 x34 -1 x50 >= -1 ;
-1 x415 +1 x33 >= 0 ;
-1 x415 +1 x51 >= 0 ;
+1 x415 -1 x33 -1 x51 >= -1 ;
-1 x404 +1 x32 >= 0 ;
-1 x404 +1 x52 >= 0 ;
+1 x404 -1 x32 -1 x52 >= -1 ;
-1 x393 +1 x31 >= 0 ;
-1 x393 +1 x53 >= 0 ;
+1 x393 -1 x31 -1 x53 >= -1 ;
-1 x382 +1 x30 >= 0 ;
-1 x382 +1 x54 >= 0 ;
+1 x382 -1 x30 -1 x54 >= -1 ;
-1 x371 +1 x29 >= 0 ;
-1 x371 +1 x55 >= 0 ;
+1 x371 -1 x29 -1 x55 >= -1 ;
-1 x360 +1 x28 >= 0 ;
-1 x360 +1 x56 >= 0 ;
+1 x360 -1 x28 -1 x56 >= -1 ;
-1 x349 +1 x27 >= 0 ;
-1 x349 +1 x57 >= 0 ;
+1 x349 -1 x27 -1 x57 >= -1 ;
-1 x338 +1 x26 >= 0 ;
-1 x338 +1 x58 >= 0 ;
+1 x338 -1 x26 -1 x58 >= -1 ;
-1 x327 +1 x25 >= 0 ;
-1 x327 +1 x59 >= 0 ;
+1 x327 -1 x25 -1 x59 >= -1 ;
-1 x253 +1 x47 >= 0 ;
-1 x253 +1 x74 >= 0 ;
+1 x253 -1 x47 -1 x74 >= -1 ;
-1 x241 +1 x46 >= 0 ;
-1 x241 +1 x75 >= 0 ;
+1 x241 -1 x46 -1 x75 >= -1 ;
-1 x229 +1 x45 >= 0 ;
-1 x229 +1 x76 >= 0 ;
+1 x229 -1 x45 -1 x76 >= -1 ;
-1 x217 +1 x44 >= 0 ;
-1 x217 +1 x77 >= 0 ;
+1 x217 -1 x44 -1 x77 >= -1 ;
-1 x205 +1 x43 >= 0 ;
-1 x205 +1 x78 >= 0 ;
+1 x205 -1 x43 -1 x78 >= -1 ;
-1 x193 +1 x42 >= 0 ;
-1 x193 +1 x79 >= 0 ;
+1 x193 -1 x42 -1 x79 >= -1 ;
-1 x181 +1 x41 >= 0 ;
-1 x181 +1 x80 >= 0 ;
+1 x181 -1 x41 -1 x80 >= -1 ;
-1 x169 +1 x40 >= 0 ;
-1 x169 +1 x81 >= 0 ;
+1 x169 -1 x40 -1 x81 >= -1 ;
-1 x157 +1 x39 >= 0 ;
-1 x157 +1 x82 >= 0 ;
+1 x157 -1 x39 -1 x82 >= -1 ;
-1 x145 +1 x38 >= 0 ;
-1 x145 +1 x83 >= 0 ;
+1 x145 -1 x38 -1 x83 >= -1 ;
-1 x133 +1 x37 >= 0 ;
-1 x133 +1 x84 >= 0 ;
+1 x133 -1 x37 -1 x84 >= -1 ;
-1 x438 +1 x35 >= 0 ;
-1 x438 +1 x50 >= 0 ;
+1 x438 -1 x35 -1 x50 >= -1 ;
-1 x427 +1 x34 >= 0 ;
-1 x427 +1 x51 >= 0 ;
+1 x427 -1 x34 -1 x51 >= -1 ;
-1 x416 +1 x33 >= 0 ;
-1 x416 +1 x52 >= 0 ;
+1 x416 -1 x33 -1 x52 >= -1 ;
-1 x405 +1 x32 >= 0 ;
-1 x405 +1 x53 >= 0 ;
+1 x405 -1 x32 -1 x53 >= -1 ;
-1 x394 +1 x31 >= 0 ;
-1 x394 +1 x54 >= 0 ;
+1 x394 -1 x31 -1 x54 >= -1 ;
-1 x383 +1 x30 >= 0 ;
-1 x383 +1 x55 >= 0 ;
+1 x383 -1 x30 -1 x55 >= -1 ;
-1 x372 +1 x29 >= 0 ;
-1 x372 +1 x56 >= 0 ;
+1 x372 -1 x29 -1 x56 >= -1 ;
-1 x361 +1 x28 >= 0 ;
-1 x361 +1 x57 >= 0 ;
+1 x361 -1 x28 -1 x57 >= -1 ;
-1 x350 +1 x27 >= 0 ;
-1 x350 +1 x58 >= 0 ;
+1 x350 -1 x27 -1 x58 >= -1 ;
-1 x339 +1 x26 >= 0 ;
-1 x339 +1 x59 >= 0 ;
+1 x339 -1 x26 -1 x59 >= -1 ;
-1 x328 +1 x25 >= 0 ;
-1 x328 +1 x60 >= 0 ;
+1 x328 -1 x25 -1 x60 >= -1 ;
-1 x266 +1 x48 >= 0 ;
-1 x266 +1 x74 >= 0 ;
+1 x266 -1 x48 -1 x74 >= -1 ;
-1 x254 +1 x47 >= 0 ;
-1 x254 +1 x75 >= 0 ;
+1 x254 -1 x47 -1 x75 >= -1 ;
-1 x242 +1 x46 >= 0 ;
-1 x242 +1 x76 >= 0 ;
+1 x242 -1 x46 -1 x76 >= -1 ;
-1 x230 +1 x45 >= 0 ;
-1 x230 +1 x77 >= 0 ;
+1 x230 -1 x45 -1 x77 >= -1 ;
-1 x218 +1 x44 >= 0 ;
-1 x218 +1 x78 >= 0 ;
+1 x218 -1 x44 -1 x78 >= -1 ;
-1 x206 +1 x43 >= 0 ;
-1 x206 +1 x79 >= 0 ;
+1 x206 -1 x43 -1 x79 >= -1 ;
-1 x194 +1 x42 >= 0 ;
-1 x194 +1 x80 >= 0 ;
+1 x194 -1 x42 -1 x80 >= -1 ;
-1 x182 +1 x41 >= 0 ;
-1 x182 +1 x81 >= 0 ;
+1 x182 -1 x41 -1 x81 >= -1 ;
-1 x170 +1 x40 >= 0 ;
-1 x170 +1 x82 >= 0 ;
+1 x170 -1 x40 -1 x82 >= -1 ;
-1 x158 +1 x39 >= 0 ;
-1 x158 +1 x83 >= 0 ;
+1 x158 -1 x39 -1 x83 >= -1 ;
-1 x146 +1 x38 >= 0 ;
-1 x146 +1 x84 >= 0 ;
+1 x146 -1 x38 -1 x84 >= -1 ;
-1 x134 +1 x37 >= 0 ;
-1 x134 +1 x85 >= 0 ;
+1 x134 -1 x37 -1 x85 >= -1 ;
-1 x450 +1 x36 >= 0 ;
-1 x450 +1 x50 >= 0 ;
+1 x450 -1 x36 -1 x50 >= -1 ;
-1 x439 +1 x35 >= 0 ;
-1 x439 +1 x51 >= 0 ;
+1 x439 -1 x35 -1 x51 >= -1 ;
-1 x428 +1 x34 >= 0 ;
-1 x428 +1 x52 >= 0 ;
+1 x428 -1 x34 -1 x52 >= -1 ;
-1 x417 +1 x33 >= 0 ;
-1 x417 +1 x53 >= 0 ;
+1 x417 -1 x33 -1 x53 >= -1 ;
-1 x406 +1 x32 >= 0 ;
-1 x406 +1 x54 >= 0 ;
+1 x406 -1 x32 -1 x54 >= -1 ;
-1 x395 +1 x31 >= 0 ;
-1 x395 +1 x55 >= 0 ;
+1 x395 -1 x31 -1 x55 >= -1 ;
-1 x384 +1 x30 >= 0 ;
-1 x384 +1 x56 >= 0 ;
+1 x384 -1 x30 -1 x56 >= -1 ;
-1 x373 +1 x29 >= 0 ;
-1 x373 +1 x57 >= 0 ;
+1 x373 -1 x29 -1 x57 >= -1 ;
-1 x362 +1 x28 >= 0 ;
-1 x362 +1 x58 >= 0 ;
+1 x362 -1 x28 -1 x58 >= -1 ;
-1 x351 +1 x27 >= 0 ;
-1 x351 +1 x59 >= 0 ;
+1 x351 -1 x27 -1 x59 >= -1 ;
-1 x340 +1 x26 >= 0 ;
-1 x340 +1 x60 >= 0 ;
+1 x340 -1 x26 -1 x60 >= -1 ;
-1 x329 +1 x25 >= 0 ;
-1 x329 +1 x61 >= 0 ;
+1 x329 -1 x25 -1 x61 >= -1 ;
-1 x279 +1 x49 >= 0 ;
-1 x279 +1 x74 >= 0 ;
+1 x279 -1 x49 -1 x74 >= -1 ;
-1 x267 +1 x48 >= 0 ;
-1 x267 +1 x75 >= 0 ;
+1 x267 -1 x48 -1 x75 >= -1 ;
-1 x255 +1 x47 >= 0 ;
-1 x255 +1 x76 >= 0 ;
+1 x255 -1 x47 -1 x76 >= -1 ;
-1 x243 +1 x46 >= 0 ;
-1 x243 +1 x77 >= 0 ;
+1 x243 -1 x46 -1 x77 >= -1 ;
-1 x231 +1 x45 >= 0 ;
-1 x231 +1 x78 >= 0 ;
+1 x231 -1 x45 -1 x78 >= -1 ;
-1 x219 +1 x44 >= 0 ;
-1 x219 +1 x79 >= 0 ;
+1 x219 -1 x44 -1 x79 >= -1 ;
-1 x207 +1 x43 >= 0 ;
-1 x207 +1 x80 >= 0 ;
+1 x207 -1 x43 -1 x80 >= -1 ;
-1 x195 +1 x42 >= 0 ;
-1 x195 +1 x81 >= 0 ;
+1 x195 -1 x42 -1 x81 >= -1 ;
-1 x183 +1 x41 >= 0 ;
-1 x183 +1 x82 >= 0 ;
+1 x183 -1 x41 -1 x82 >= -1 ;
-1 x171 +1 x40 >= 0 ;
-1 x171 +1 x83 >= 0 ;
+1 x171 -1 x40 -1 x83 >= -1 ;
-1 x159 +1 x39 >= 0 ;
-1 x159 +1 x84 >= 0 ;
+1 x159 -1 x39 -1 x84 >= -1 ;
-1 x147 +1 x38 >= 0 ;
-1 x147 +1 x85 >= 0 ;
+1 x147 -1 x38 -1 x85 >= -1 ;
-1 x135 +1 x37 >= 0 ;
-1 x135 +1 x86 >= 0 ;
+1 x135 -1 x37 -1 x86 >= -1 ;
-1 x451 +1 x36 >= 0 ;
-1 x451 +1 x51 >= 0 ;
+1 x451 -1 x36 -1 x51 >= -1 ;
-1 x440 +1 x35 >= 0 ;
-1 x440 +1 x52 >= 0 ;
+1 x440 -1 x35 -1 x52 >= -1 ;
-1 x429 +1 x34 >= 0 ;
-1 x429 +1 x53 >= 0 ;
+1 x429 -1 x34 -1 x53 >= -1 ;
-1 x418 +1 x33 >= 0 ;
-1 x418 +1 x54 >= 0 ;
+1 x418 -1 x33 -1 x54 >= -1 ;
-1 x407 +1 x32 >= 0 ;
-1 x407 +1 x55 >= 0 ;
+1 x407 -1 x32 -1 x55 >= -1 ;
-1 x396 +1 x31 >= 0 ;
-1 x396 +1 x56 >= 0 ;
+1 x396 -1 x31 -1 x56 >= -1 ;
-1 x385 +1 x30 >= 0 ;
-1 x385 +1 x57 >= 0 ;
+1 x385 -1 x30 -1 x57 >= -1 ;
-1 x374 +1 x29 >= 0 ;
-1 x374 +1 x58 >= 0 ;
+1 x374 -1 x29 -1 x58 >= -1 ;
-1 x363 +1 x28 >= 0 ;
-1 x363 +1 x59 >= 0 ;
+1 x363 -1 x28 -1 x59 >= -1 ;
-1 x352 +1 x27 >= 0 ;
-1 x352 +1 x60 >= 0 ;
+1 x352 -1 x27 -1 x60 >= -1 ;
-1 x341 +1 x26 >= 0 ;
-1 x341 +1 x61 >= 0 ;
+1 x341 -1 x26 -1 x61 >= -1 ;
-1 x280 +1 x49 >= 0 ;
-1 x280 +1 x75 >= 0 ;
+1 x280 -1 x49 -1 x75 >= -1 ;
-1 x268 +1 x48 >= 0 ;
-1 x268 +1 x76 >= 0 ;
+1 x268 -1 x48 -1 x76 >= -1 ;
-1 x256 +1 x47 >= 0 ;
-1 x256 +1 x77 >= 0 ;
+1 x256 -1 x47 -1 x77 >= -1 ;
-1 x244 +1 x46 >= 0 ;
-1 x244 +1 x78 >= 0 ;
+1 x244 -1 x46 -1 x78 >= -1 ;
-1 x232 +1 x45 >= 0 ;
-1 x232 +1 x79 >= 0 ;
+1 x232 -1 x45 -1 x79 >= -1 ;
-1 x220 +1 x44 >= 0 ;
-1 x220 +1 x80 >= 0 ;
+1 x220 -1 x44 -1 x80 >= -1 ;
-1 x208 +1 x43 >= 0 ;
-1 x208 +1 x81 >= 0 ;
+1 x208 -1 x43 -1 x81 >= -1 ;
-1 x196 +1 x42 >= 0 ;
-1 x196 +1 x82 >= 0 ;
+1 x196 -1 x42 -1 x82 >= -1 ;
-1 x184 +1 x41 >= 0 ;
-1 x184 +1 x83 >= 0 ;
+1 x184 -1 x41 -1 x83 >= -1 ;
-1 x172 +1 x40 >= 0 ;
-1 x172 +1 x84 >= 0 ;
+1 x172 -1 x40 -1 x84 >= -1 ;
-1 x160 +1 x39 >= 0 ;
-1 x160 +1 x85 >= 0 ;
+1 x160 -1 x39 -1 x85 >= -1 ;
-1 x148 +1 x38 >= 0 ;
-1 x148 +1 x86 >= 0 ;
+1 x148 -1 x38 -1 x86 >= -1 ;
-1 x452 +1 x36 >= 0 ;
-1 x452 +1 x52 >= 0 ;
+1 x452 -1 x36 -1 x52 >= -1 ;
-1 x441 +1 x35 >= 0 ;
-1 x441 +1 x53 >= 0 ;
+1 x441 -1 x35 -1 x53 >= -1 ;
-1 x430 +1 x34 >= 0 ;
-1 x430 +1 x54 >= 0 ;
+1 x430 -1 x34 -1 x54 >= -1 ;
-1 x419 +1 x33 >= 0 ;
-1 x419 +1 x55 >= 0 ;
+1 x419 -1 x33 -1 x55 >= -1 ;
-1 x408 +1 x32 >= 0 ;
-1 x408 +1 x56 >= 0 ;
+1 x408 -1 x32 -1 x56 >= -1 ;
-1 x397 +1 x31 >= 0 ;
-1 x397 +1 x57 >= 0 ;
+1 x397 -1 x31 -1 x57 >= -1 ;
-1 x386 +1 x30 >= 0 ;
-1 x386 +1 x58 >= 0 ;
+1 x386 -1 x30 -1 x58 >= -1 ;
-1 x375 +1 x29 >= 0 ;
-1 x375 +1 x59 >= 0 ;
+1 x375 -1 x29 -1 x59 >= -1 ;
-1 x364 +1 x28 >= 0 ;
-1 x364 +1 x60 >= 0 ;
+1 x364 -1 x28 -1 x60 >= -1 ;
-1 x353 +1 x27 >= 0 ;
-1 x353 +1 x61 >= 0 ;
+1 x353 -1 x27 -1 x61 >= -1 ;
-1 x281 +1 x49 >= 0 ;
-1 x281 +1 x76 >= 0 ;
+1 x281 -1 x49 -1 x76 >= -1 ;
-1 x269 +1 x48 >= 0 ;
-1 x269 +1 x77 >= 0 ;
+1 x269 -1 x48 -1 x77 >= -1 ;
-1 x257 +1 x47 >= 0 ;
-1 x257 +1 x78 >= 0 ;
+1 x257 -1 x47 -1 x78 >= -1 ;
-1 x245 +1 x46 >= 0 ;
-1 x245 +1 x79 >= 0 ;
+1 x245 -1 x46 -1 x79 >= -1 ;
-1 x233 +1 x45 >= 0 ;
-1 x233 +1 x80 >= 0 ;
+1 x233 -1 x45 -1 x80 >= -1 ;
-1 x221 +1 x44 >= 0 ;
-1 x221 +1 x81 >= 0 ;
+1 x221 -1 x44 -1 x81 >= -1 ;
-1 x209 +1 x43 >= 0 ;
-1 x209 +1 x82 >= 0 ;
+1 x209 -1 x43 -1 x82 >= -1 ;
-1 x197 +1 x42 >= 0 ;
-1 x197 +1 x83 >= 0 ;
+1 x197 -1 x42 -1 x83 >= -1 ;
-1 x185 +1 x41 >= 0 ;
-1 x185 +1 x84 >= 0 ;
+1 x185 -1 x41 -1 x84 >= -1 ;
-1 x173 +1 x40 >= 0 ;
-1 x173 +1 x85 >= 0 ;
+1 x173 -1 x40 -1 x85 >= -1 ;
-1 x161 +1 x39 >= 0 ;
-1 x161 +1 x86 >= 0 ;
+1 x161 -1 x39 -1 x86 >= -1 ;
-1 x453 +1 x36 >= 0 ;
-1 x453 +1 x53 >= 0 ;
+1 x453 -1 x36 -1 x53 >= -1 ;
-1 x442 +1 x35 >= 0 ;
-1 x442 +1 x54 >= 0 ;
+1 x442 -1 x35 -1 x54 >= -1 ;
-1 x431 +1 x34 >= 0 ;
-1 x431 +1 x55 >= 0 ;
+1 x431 -1 x34 -1 x55 >= -1 ;
-1 x420 +1 x33 >= 0 ;
-1 x420 +1 x56 >= 0 ;
+1 x420 -1 x33 -1 x56 >= -1 ;
-1 x409 +1 x32 >= 0 ;
-1 x409 +1 x57 >= 0 ;
+1 x409 -1 x32 -1 x57 >= -1 ;
-1 x398 +1 x31 >= 0 ;
-1 x398 +1 x58 >= 0 ;
+1 x398 -1 x31 -1 x58 >= -1 ;
-1 x387 +1 x30 >= 0 ;
-1 x387 +1 x59 >= 0 ;
+1 x387 -1 x30 -1 x59 >= -1 ;
-1 x376 +1 x29 >= 0 ;
-1 x376 +1 x60 >= 0 ;
+1 x376 -1 x29 -1 x60 >= -1 ;
-1 x365 +1 x28 >= 0 ;
-1 x365 +1 x61 >= 0 ;
+1 x365 -1 x28 -1 x61 >= -1 ;
-1 x282 +1 x49 >= 0 ;
-1 x282 +1 x77 >= 0 ;
+1 x282 -1 x49 -1 x77 >= -1 ;
-1 x270 +1 x48 >= 0 ;
-1 x270 +1 x78 >= 0 ;
+1 x270 -1 x48 -1 x78 >= -1 ;
-1 x258 +1 x47 >= 0 ;
-1 x258 +1 x79 >= 0 ;
+1 x258 -1 x47 -1 x79 >= -1 ;
-1 x246 +1 x46 >= 0 ;
-1 x246 +1 x80 >= 0 ;
+1 x246 -1 x46 -1 x80 >= -1 ;
-1 x234 +1 x45 >= 0 ;
-1 x234 +1 x81 >= 0 ;
+1 x234 -1 x45 -1 x81 >= -1 ;
-1 x222 +1 x44 >= 0 ;
-1 x222 +1 x82 >= 0 ;
+1 x222 -1 x44 -1 x82 >= -1 ;
-1 x210 +1 x43 >= 0 ;
-1 x210 +1 x83 >= 0 ;
+1 x210 -1 x43 -1 x83 >= -1 ;
-1 x198 +1 x42 >= 0 ;
-1 x198 +1 x84 >= 0 ;
+1 x198 -1 x42 -1 x84 >= -1 ;
-1 x186 +1 x41 >= 0 ;
-1 x186 +1 x85 >= 0 ;
+1 x186 -1 x41 -1 x85 >= -1 ;
-1 x174 +1 x40 >= 0 ;
-1 x174 +1 x86 >= 0 ;
+1 x174 -1 x40 -1 x86 >= -1 ;
-1 x454 +1 x36 >= 0 ;
-1 x454 +1 x54 >= 0 ;
+1 x454 -1 x36 -1 x54 >= -1 ;
-1 x443 +1 x35 >= 0 ;
-1 x443 +1 x55 >= 0 ;
+1 x443 -1 x35 -1 x55 >= -1 ;
-1 x432 +1 x34 >= 0 ;
-1 x432 +1 x56 >= 0 ;
+1 x432 -1 x34 -1 x56 >= -1 ;
-1 x421 +1 x33 >= 0 ;
-1 x421 +1 x57 >= 0 ;
+1 x421 -1 x33 -1 x57 >= -1 ;
-1 x410 +1 x32 >= 0 ;
-1 x410 +1 x58 >= 0 ;
+1 x410 -1 x32 -1 x58 >= -1 ;
-1 x399 +1 x31 >= 0 ;
-1 x399 +1 x59 >= 0 ;
+1 x399 -1 x31 -1 x59 >= -1 ;
-1 x388 +1 x30 >= 0 ;
-1 x388 +1 x60 >= 0 ;
+1 x388 -1 x30 -1 x60 >= -1 ;
-1 x377 +1 x29 >= 0 ;
-1 x377 +1 x61 >= 0 ;
+1 x377 -1 x29 -1 x61 >= -1 ;
-1 x283 +1 x49 >= 0 ;
-1 x283 +1 x78 >= 0 ;
+1 x283 -1 x49 -1 x78 >= -1 ;
-1 x271 +1 x48 >= 0 ;
-1 x271 +1 x79 >= 0 ;
+1 x271 -1 x48 -1 x79 >= -1 ;
-1 x259 +1 x47 >= 0 ;
-1 x259 +1 x80 >= 0 ;
+1 x259 -1 x47 -1 x80 >= -1 ;
-1 x247 +1 x46 >= 0 ;
-1 x247 +1 x81 >= 0 ;
+1 x247 -1 x46 -1 x81 >= -1 ;
-1 x235 +1 x45 >= 0 ;
-1 x235 +1 x82 >= 0 ;
+1 x235 -1 x45 -1 x82 >= -1 ;
-1 x223 +1 x44 >= 0 ;
-1 x223 +1 x83 >= 0 ;
+1 x223 -1 x44 -1 x83 >= -1 ;
-1 x211 +1 x43 >= 0 ;
-1 x211 +1 x84 >= 0 ;
+1 x211 -1 x43 -1 x84 >= -1 ;
-1 x199 +1 x42 >= 0 ;
-1 x199 +1 x85 >= 0 ;
+1 x199 -1 x42 -1 x85 >= -1 ;
-1 x187 +1 x41 >= 0 ;
-1 x187 +1 x86 >= 0 ;
+1 x187 -1 x41 -1 x86 >= -1 ;
-1 x455 +1 x36 >= 0 ;
-1 x455 +1 x55 >= 0 ;
+1 x455 -1 x36 -1 x55 >= -1 ;
-1 x444 +1 x35 >= 0 ;
-1 x444 +1 x56 >= 0 ;
+1 x444 -1 x35 -1 x56 >= -1 ;
-1 x433 +1 x34 >= 0 ;
-1 x433 +1 x57 >= 0 ;
+1 x433 -1 x34 -1 x57 >= -1 ;
-1 x422 +1 x33 >= 0 ;
-1 x422 +1 x58 >= 0 ;
+1 x422 -1 x33 -1 x58 >= -1 ;
-1 x411 +1 x32 >= 0 ;
-1 x411 +1 x59 >= 0 ;
+1 x411 -1 x32 -1 x59 >= -1 ;
-1 x400 +1 x31 >= 0 ;
-1 x400 +1 x60 >= 0 ;
+1 x400 -1 x31 -1 x60 >= -1 ;
-1 x389 +1 x30 >= 0 ;
-1 x389 +1 x61 >= 0 ;
+1 x389 -1 x30 -1 x61 >= -1 ;
-1 x284 +1 x49 >= 0 ;
-1 x284 +1 x79 >= 0 ;
+1 x284 -1 x49 -1 x79 >= -1 ;
-1 x272 +1 x48 >= 0 ;
-1 x272 +1 x80 >= 0 ;
+1 x272 -1 x48 -1 x80 >= -1 ;
-1 x260 +1 x47 >= 0 ;
-1 x260 +1 x81 >= 0 ;
+1 x260 -1 x47 -1 x81 >= -1 ;
-1 x248 +1 x46 >= 0 ;
-1 x248 +1 x82 >= 0 ;
+1 x248 -1 x46 -1 x82 >= -1 ;
-1 x236 +1 x45 >= 0 ;
-1 x236 +1 x83 >= 0 ;
+1 x236 -1 x45 -1 x83 >= -1 ;
-1 x224 +1 x44 >= 0 ;
-1 x224 +1 x84 >= 0 ;
+1 x224 -1 x44 -1 x84 >= -1 ;
-1 x212 +1 x43 >= 0 ;
-1 x212 +1 x85 >= 0 ;
+1 x212 -1 x43 -1 x85 >= -1 ;
-1 x200 +1 x42 >= 0 ;
-1 x200 +1 x86 >= 0 ;
+1 x200 -1 x42 -1 x86 >= -1 ;
-1 x456 +1 x36 >= 0 ;
-1 x456 +1 x56 >= 0 ;
+1 x456 -1 x36 -1 x56 >= -1 ;
-1 x445 +1 x35 >= 0 ;
-1 x445 +1 x57 >= 0 ;
+1 x445 -1 x35 -1 x57 >= -1 ;
-1 x434 +1 x34 >= 0 ;
-1 x434 +1 x58 >= 0 ;
+1 x434 -1 x34 -1 x58 >= -1 ;
-1 x423 +1 x33 >= 0 ;
-1 x423 +1 x59 >= 0 ;
+1 x423 -1 x33 -1 x59 >= -1 ;
-1 x412 +1 x32 >= 0 ;
-1 x412 +1 x60 >= 0 ;
+1 x412 -1 x32 -1 x60 >= -1 ;
-1 x401 +1 x31 >= 0 ;
-1 x401 +1 x61 >= 0 ;
+1 x401 -1 x31 -1 x61 >= -1 ;
-1 x285 +1 x49 >= 0 ;
-1 x285 +1 x80 >= 0 ;
+1 x285 -1 x49 -1 x80 >= -1 ;
-1 x273 +1 x48 >= 0 ;
-1 x273 +1 x81 >= 0 ;
+1 x273 -1 x48 -1 x81 >= -1 ;
-1 x261 +1 x47 >= 0 ;
-1 x261 +1 x82 >= 0 ;
+1 x261 -1 x47 -1 x82 >= -1 ;
-1 x249 +1 x46 >= 0 ;
-1 x249 +1 x83 >= 0 ;
+1 x249 -1 x46 -1 x83 >= -1 ;
-1 x237 +1 x45 >= 0 ;
-1 x237 +1 x84 >= 0 ;
+1 x237 -1 x45 -1 x84 >= -1 ;
-1 x225 +1 x44 >= 0 ;
-1 x225 +1 x85 >= 0 ;
+1 x225 -1 x44 -1 x85 >= -1 ;
-1 x213 +1 x43 >= 0 ;
-1 x213 +1 x86 >= 0 ;
+1 x213 -1 x43 -1 x86 >= -1 ;
-1 x457 +1 x36 >= 0 ;
-1 x457 +1 x57 >= 0 ;
+1 x457 -1 x36 -1 x57 >= -1 ;
-1 x446 +1 x35 >= 0 ;
-1 x446 +1 x58 >= 0 ;
+1 x446 -1 x35 -1 x58 >= -1 ;
-1 x435 +1 x34 >= 0 ;
-1 x435 +1 x59 >= 0 ;
+1 x435 -1 x34 -1 x59 >= -1 ;
-1 x424 +1 x33 >= 0 ;
-1 x424 +1 x60 >= 0 ;
+1 x424 -1 x33 -1 x60 >= -1 ;
-1 x413 +1 x32 >= 0 ;
-1 x413 +1 x61 >= 0 ;
+1 x413 -1 x32 -1 x61 >= -1 ;
-1 x286 +1 x49 >= 0 ;
-1 x286 +1 x81 >= 0 ;
+1 x286 -1 x49 -1 x81 >= -1 ;
-1 x274 +1 x48 >= 0 ;
-1 x274 +1 x82 >= 0 ;
+1 x274 -1 x48 -1 x82 >= -1 ;
-1 x262 +1 x47 >= 0 ;
-1 x262 +1 x83 >= 0 ;
+1 x262 -1 x47 -1 x83 >= -1 ;
-1 x250 +1 x46 >= 0 ;
-1 x250 +1 x84 >= 0 ;
+1 x250 -1 x46 -1 x84 >= -1 ;
-1 x238 +1 x45 >= 0 ;
-1 x238 +1 x85 >= 0 ;
+1 x238 -1 x45 -1 x85 >= -1 ;
-1 x226 +1 x44 >= 0 ;
-1 x226 +1 x86 >= 0 ;
+1 x226 -1 x44 -1 x86 >= -1 ;
-1 x458 +1 x36 >= 0 ;
-1 x458 +1 x58 >= 0 ;
+1 x458 -1 x36 -1 x58 >= -1 ;
-1 x447 +1 x35 >= 0 ;
-1 x447 +1 x59 >= 0 ;
+1 x447 -1 x35 -1 x59 >= -1 ;
-1 x436 +1 x34 >= 0 ;
-1 x436 +1 x60 >= 0 ;
+1 x436 -1 x34 -1 x60 >= -1 ;
-1 x425 +1 x33 >= 0 ;
-1 x425 +1 x61 >= 0 ;
+1 x425 -1 x33 -1 x61 >= -1 ;
-1 x287 +1 x49 >= 0 ;
-1 x287 +1 x82 >= 0 ;
+1 x287 -1 x49 -1 x82 >= -1 ;
-1 x275 +1 x48 >= 0 ;
-1 x275 +1 x83 >= 0 ;
+1 x275 -1 x48 -1 x83 >= -1 ;
-1 x263 +1 x47 >= 0 ;
-1 x263 +1 x84 >= 0 ;
+1 x263 -1 x47 -1 x84 >= -1 ;
-1 x251 +1 x46 >= 0 ;
-1 x251 +1 x85 >= 0 ;
+1 x251 -1 x46 -1 x85 >= -1 ;
-1 x239 +1 x45 >= 0 ;
-1 x239 +1 x86 >= 0 ;
+1 x239 -1 x45 -1 x86 >= -1 ;
-1 x459 +1 x36 >= 0 ;
-1 x459 +1 x59 >= 0 ;
+1 x459 -1 x36 -1 x59 >= -1 ;
-1 x448 +1 x35 >= 0 ;
-1 x448 +1 x60 >= 0 ;
+1 x448 -1 x35 -1 x60 >= -1 ;
-1 x437 +1 x34 >= 0 ;
-1 x437 +1 x61 >= 0 ;
+1 x437 -1 x34 -1 x61 >= -1 ;
-1 x288 +1 x49 >= 0 ;
-1 x288 +1 x83 >= 0 ;
+1 x288 -1 x49 -1 x83 >= -1 ;
-1 x276 +1 x48 >= 0 ;
-1 x276 +1 x84 >= 0 ;
+1 x276 -1 x48 -1 x84 >= -1 ;
-1 x264 +1 x47 >= 0 ;
-1 x264 +1 x85 >= 0 ;
+1 x264 -1 x47 -1 x85 >= -1 ;
-1 x252 +1 x46 >= 0 ;
-1 x252 +1 x86 >= 0 ;
+1 x252 -1 x46 -1 x86 >= -1 ;
-1 x460 +1 x36 >= 0 ;
-1 x460 +1 x60 >= 0 ;
+1 x460 -1 x36 -1 x60 >= -1 ;
-1 x449 +1 x35 >= 0 ;
-1 x449 +1 x61 >= 0 ;
+1 x449 -1 x35 -1 x61 >= -1 ;
-1 x289 +1 x49 >= 0 ;
-1 x289 +1 x84 >= 0 ;
+1 x289 -1 x49 -1 x84 >= -1 ;
-1 x277 +1 x48 >= 0 ;
-1 x277 +1 x85 >= 0 ;
+1 x277 -1 x48 -1 x85 >= -1 ;
-1 x265 +1 x47 >= 0 ;
-1 x265 +1 x86 >= 0 ;
+1 x265 -1 x47 -1 x86 >= -1 ;
-1 x461 +1 x36 >= 0 ;
-1 x461 +1 x61 >= 0 ;
+1 x461 -1 x36 -1 x61 >= -1 ;
-1 x290 +1 x49 >= 0 ;
-1 x290 +1 x85 >= 0 ;
+1 x290 -1 x49 -1 x85 >= -1 ;
-1 x278 +1 x48 >= 0 ;
-1 x278 +1 x86 >= 0 ;
+1 x278 -1 x48 -1 x86 >= -1 ;
-1 x291 +1 x49 >= 0 ;
-1 x291 +1 x86 >= 0 ;
+1 x291 -1 x49 -1 x86 >= -1 ;
